p cnf 67 252
3 1 0
3 2 0
-1 -2 -3 0
5 -4 0
5 -1 0
4 1 -5 0
-3 5 -6 0
3 -5 -6 0
-3 -5 6 0
3 5 6 0
-9 -8 0
-9 4 0
8 -4 9 0
-4 -2 -10 0
4 2 -10 0
-4 2 10 0
4 -2 10 0
-11 -9 0
-11 10 0
9 -10 11 0
-12 7 0
-12 11 0
-7 -11 12 0
-13 -6 0
-13 -12 0
6 12 13 0
-14 10 -15 0
14 -10 -15 0
-14 -10 15 0
14 10 15 0
-15 2 -16 0
15 -2 -16 0
-15 -2 16 0
15 2 16 0
18 -14 0
18 3 0
14 -3 -18 0
19 -5 0
19 7 0
5 -7 -19 0
20 -18 0
20 19 0
18 -19 -20 0
21 17 0
21 20 0
-17 -20 -21 0
22 -16 0
22 -21 0
16 21 -22 0
-24 2 0
-24 -23 0
-2 23 24 0
-24 -10 -25 0
24 10 -25 0
-24 10 25 0
24 -10 25 0
27 26 0
27 -23 0
-26 23 -27 0
-25 27 -28 0
25 -27 -28 0
-25 -27 28 0
25 27 28 0
-29 17 0
-29 -7 0
-17 7 29 0
30 29 0
30 -2 0
-29 2 -30 0
-31 -14 0
-31 30 0
14 -30 31 0
-32 -28 0
-32 31 0
28 -31 32 0
34 4 0
34 33 0
-4 -33 -34 0
35 17 0
35 29 0
-17 -29 -35 0
-36 8 0
-36 10 0
-8 -10 36 0
-4 36 -37 0
4 -36 -37 0
-4 -36 37 0
4 36 37 0
37 18 -38 0
-37 -18 -38 0
37 -18 38 0
-37 18 38 0
35 -38 -39 0
-35 38 -39 0
35 38 39 0
-35 -38 39 0
-34 -39 -40 0
34 39 -40 0
-34 39 40 0
34 -39 40 0
-41 -32 0
-41 40 0
32 -40 41 0
22 41 -42 0
-22 -41 -42 0
22 -41 42 0
-22 41 42 0
-13 -42 -43 0
13 42 -43 0
-13 42 43 0
13 -42 43 0
44 -25 0
44 27 0
25 -27 -44 0
-44 -24 -45 0
44 24 -45 0
-44 24 45 0
44 -24 45 0
46 -26 0
46 -4 0
26 4 -46 0
47 45 0
47 -46 0
-45 46 -47 0
-48 26 0
-48 -8 0
-26 8 48 0
47 -48 -49 0
-47 48 -49 0
47 48 49 0
-47 -48 49 0
27 4 -50 0
-27 -4 -50 0
27 -4 50 0
-27 4 50 0
10 50 -51 0
-10 -50 -51 0
10 -50 51 0
-10 50 51 0
-52 20 0
-52 -51 0
-20 51 52 0
-52 -15 -53 0
52 15 -53 0
-52 15 53 0
52 -15 53 0
-54 -9 0
-54 17 0
9 -17 54 0
-54 51 -55 0
54 -51 -55 0
-54 -51 55 0
54 51 55 0
-56 53 0
-56 55 0
-53 -55 56 0
-57 49 0
-57 56 0
-49 -56 57 0
-58 -29 0
-58 29 0
8 37 -59 0
-8 -37 -59 0
8 -37 59 0
-8 37 59 0
60 59 0
60 -1 0
-59 1 -60 0
3 10 -61 0
-3 -10 -61 0
3 -10 61 0
-3 10 61 0
62 60 0
62 61 0
-60 -61 -62 0
36 51 -63 0
-36 -51 -63 0
36 -51 63 0
-36 51 63 0
-64 62 0
-64 63 0
-62 -63 64 0
65 58 0
65 64 0
-58 -64 -65 0
-57 -65 -66 0
57 65 -66 0
-57 65 66 0
57 -65 66 0
-43 66 -67 0
43 -66 -67 0
-43 -66 67 0
43 66 67 0
8 14 21 12 29 0
-58 -51 0
38 -60 -39 -7 56 0
22 -28 -54 0
4 -6 37 40 -54 0
-44 -12 -57 -66 8 42 0
29 -66 -21 19 0
-5 3 15 27 -9 14 0
25 8 0
-38 56 0
-26 37 7 -1 0
20 30 0
-45 -43 -60 -31 -64 6 0
-64 -66 -52 -6 -41 0
-62 40 -14 -25 -47 15 0
-23 -41 37 0
-39 24 -32 0
-43 -16 0
-55 40 -30 -4 -19 0
-47 5 0
7 17 0
30 -66 18 29 0
31 26 0
62 -26 0
-37 64 56 -28 0
-29 -37 30 36 0
13 -20 -56 19 0
11 -60 -45 16 0
-4 35 3 -2 0
63 -22 -40 56 43 0
-14 -34 28 0
-2 26 64 -14 0
56 -14 16 4 29 57 0
-10 -29 -41 55 60 -26 0
9 -37 -42 47 54 0
25 27 -23 34 0
58 5 -61 29 43 60 0
52 54 37 -29 0
65 52 -30 -24 0
67 61 -4 59 -2 0
36 -8 0
-6 51 -26 0
-41 -34 8 -2 0
1 56 -4 -31 0
-2 41 17 57 -21 66 0
44 -41 63 64 43 11 0
62 -60 12 49 1 0
29 -43 -9 40 -45 -22 0
64 -33 -66 34 0
62 -2 47 0
-63 4 6 0
-22 46 -3 49 6 0
-46 -17 0
62 5 0
-21 -50 -16 0
-41 -25 13 -61 0
60 48 -50 -51 27 0
-47 8 27 0
67 0
